(set-logic QF_S)
(set-option :parse-transducers true)
(set-option :produce-models true)
(define-fun-rec toLower ((x String) (y String)) Bool
   (or (and (= x "") (= y ""))
       (and (not (= x "")) (not (= y ""))
           (= (char.code (str.head y))
               (ite (and (<= 65 (char.code (str.head x)))
                       (<= (char.code (str.head x)) 90))
                   (+ (char.code (str.head x)) 32)
                   (char.code (str.head x))))
           (toLower (str.tail x) (str.tail y))))
)
(declare-fun sym609 () String)
(declare-fun sym205 () String)
(declare-fun sym569 () String)
(declare-fun sym647 () String)
(declare-fun sym328 () String)
(declare-fun sym725 () String)
(declare-fun sym529 () String)
(declare-fun sym805 () String)
(declare-fun sym409 () String)
(declare-fun sym681 () String)
(declare-fun sym363 () String)
(declare-fun sym485 () String)
(declare-fun sym761 () String)
(declare-fun sym289 () String)
(declare-fun sym445 () String)
(declare-fun sym160 () String)
(declare-fun sym579 () String)
(declare-fun sym338 () String)
(declare-fun sym657 () String)
(declare-fun sym735 () String)
(declare-fun sym539 () String)
(declare-fun sym419 () String)
(declare-fun sym815 () String)
(declare-fun sym619 () String)
(declare-fun sym373 () String)
(declare-fun sym175 () String)
(declare-fun sym254 () String)
(declare-fun sym771 () String)
(declare-fun sym299 () String)
(declare-fun sym135 () String)
(declare-fun sym455 () String)
(declare-fun sym499 () String)
(declare-fun sym215 () String)
(declare-fun sym691 () String)
(declare-fun sym20 () String)
(declare-fun sym549 () String)
(declare-fun sym825 () String)
(declare-fun sym429 () String)
(declare-fun sym705 () String)
(declare-fun sym509 () String)
(declare-fun sym264 () String)
(declare-fun sym781 () String)
(declare-fun sym465 () String)
(declare-fun sym389 () String)
(declare-fun sym225 () String)
(declare-fun sym589 () String)
(declare-fun sym185 () String)
(declare-fun sym239 () String)
(declare-fun sym559 () String)
(declare-fun sym715 () String)
(declare-fun sym519 () String)
(declare-fun sym791 () String)
(declare-fun sym671 () String)
(declare-fun sym353 () String)
(declare-fun sym475 () String)
(declare-fun sym113 () String)
(declare-fun sym751 () String)
(declare-fun sym399 () String)
(declare-fun sym279 () String)
(declare-fun sym313 () String)
(declare-fun sym599 () String)
(declare-fun sym633 () String)
(declare-fun sym150 () String)
(declare-fun sym195 () String)
(declare-fun L27  () String)
(declare-fun L39  () String)
(declare-fun L19  () String)
(declare-fun L23  () String)
(declare-fun L67  () String)
(declare-fun L35  () String)
(declare-fun L79  () String)
(declare-fun L126  () String)
(declare-fun L47  () String)
(declare-fun L15  () String)
(declare-fun L59  () String)
(declare-fun L7  () String)
(declare-fun L63  () String)
(declare-fun L31  () String)
(declare-fun L75  () String)
(declare-fun L43  () String)
(declare-fun L87  () String)
(declare-fun L11  () String)
(declare-fun L55  () String)
(declare-fun L99  () String)
(declare-fun L3  () String)
(declare-fun L71  () String)
(declare-fun L83  () String)
(declare-fun L51  () String)
(declare-fun L95  () String)
(declare-fun L122  () String)
(declare-fun L91  () String)
(declare-fun L38  () String)
(declare-fun L18  () String)
(declare-fun L107  () String)
(declare-fun L115  () String)
(declare-fun L22  () String)
(declare-fun L4  () String)
(declare-fun L0  () String)
(declare-fun L103  () String)
(declare-fun L111  () String)
(declare-fun L49  () String)
(declare-fun L17  () String)
(declare-fun L29  () String)
(declare-fun L45  () String)
(declare-fun L89  () String)
(declare-fun L13  () String)
(declare-fun L57  () String)
(declare-fun L9  () String)
(declare-fun L25  () String)
(declare-fun L69  () String)
(declare-fun L37  () String)
(declare-fun L41  () String)
(declare-fun L85  () String)
(declare-fun L53  () String)
(declare-fun L97  () String)
(declare-fun L5  () String)
(declare-fun L21  () String)
(declare-fun L65  () String)
(declare-fun L33  () String)
(declare-fun L77  () String)
(declare-fun L81  () String)
(declare-fun L93  () String)
(declare-fun L1  () String)
(declare-fun L61  () String)
(declare-fun L73  () String)
(declare-fun L120  () String)
(declare-fun L124  () String)
(declare-fun L56  () String)
(declare-fun L117  () String)
(declare-fun L24  () String)
(declare-fun L105  () String)
(declare-fun L6  () String)
(declare-fun L109  () String)
(declare-fun L2  () String)
(declare-fun L113  () String)
(declare-fun L101  () String)
(assert (toLower sym225  L101 ))
(assert (toLower sym529  L113 ))
(assert (toLower sym751  L2 ))
(assert (toLower sym761  L109 ))
(assert (toLower sym20  L6 ))
(assert (toLower sym455  L105 ))
(assert (toLower "type"  L24 ))
(assert (toLower sym499  L117 ))
(assert (toLower "option"  L56 ))
(assert (toLower sym445  L124 ))
(assert (toLower sym619  L120 ))
(assert (toLower sym465  L73 ))
(assert (toLower sym539  L61 ))
(assert (toLower "database"  L1 ))
(assert (toLower sym579  L93 ))
(assert (toLower sym313  L81 ))
(assert (toLower sym485  L77 ))
(assert (toLower sym135  L33 ))
(assert (toLower sym791  L65 ))
(assert (toLower sym419  L21 ))
(assert (toLower "description"  L5 ))
(assert (toLower sym353  L97 ))
(assert (toLower sym715  L53 ))
(assert (toLower sym599  L85 ))
(assert (toLower sym815  L41 ))
(assert (toLower sym825  L37 ))
(assert (toLower sym609  L69 ))
(assert (toLower sym254  L25 ))
(assert (toLower sym264  L9 ))
(assert (toLower sym399  L57 ))
(assert (toLower sym509  L13 ))
(assert (toLower sym771  L89 ))
(assert (toLower sym705  L45 ))
(assert (toLower sym691  L29 ))
(assert (toLower sym195  L17 ))
(assert (toLower sym475  L49 ))
(assert (toLower sym735  L111 ))
(assert (toLower sym389  L103 ))
(assert (toLower sym113  L0 ))
(assert (toLower sym185  L4 ))
(assert (toLower "length"  L22 ))
(assert (toLower sym409  L115 ))
(assert (toLower sym299  L107 ))
(assert (toLower "table"  L18 ))
(assert (toLower "field"  L38 ))
(assert (toLower sym429  L91 ))
(assert (toLower sym175  L122 ))
(assert (toLower sym725  L95 ))
(assert (toLower sym805  L51 ))
(assert (toLower sym279  L83 ))
(assert (toLower sym239  L71 ))
(assert (toLower "name"  L3 ))
(assert (toLower sym215  L99 ))
(assert (toLower sym589  L55 ))
(assert (toLower sym559  L11 ))
(assert (toLower sym519  L87 ))
(assert (toLower sym289  L43 ))
(assert (toLower sym681  L75 ))
(assert (toLower sym633  L31 ))
(assert (toLower sym657  L63 ))
(assert (toLower sym671  L7 ))
(assert (toLower sym160  L59 ))
(assert (toLower sym647  L15 ))
(assert (toLower sym781  L47 ))
(assert (toLower sym569  L126 ))
(assert (toLower sym549  L79 ))
(assert (toLower sym150  L35 ))
(assert (toLower sym328  L67 ))
(assert (toLower sym373  L23 ))
(assert (toLower sym205  L19 ))
(assert (toLower sym363  L39 ))
(assert (toLower sym338  L27 ))

(assert (= L0 L1 ))
(assert (not (= L2 L3 )))
(assert (not (= L4 L5 )))
(assert (= L6 "html" ))
(assert (not (= L7 L3 )))
(assert (= L9 L5 ))
(assert (not (= L11 L5 )))
(assert (not (= L13 L5 )))
(assert (not (= L15 L3 )))
(assert (not (= L17 L18 )))
(assert (not (= L19 L3 )))
(assert (not (= L21 L22 )))
(assert (= L23 L24 ))
(assert (not (= L25 L3 )))
(assert (= L27 L5 ))
(assert (= L29 L24 ))
(assert (= L31 L3 ))
(assert (= L33 L3 ))
(assert (not (= L35 L3 )))
(assert (not (= L37 L38 )))
(assert (not (= L39 L5 )))
(assert (not (= L41 L5 )))
(assert (not (= L43 L5 )))
(assert (not (= L45 L3 )))
(assert (not (= L47 L22 )))
(assert (not (= L49 L22 )))
(assert (not (= L51 L3 )))
(assert (not (= L53 L5 )))
(assert (not (= L55 L56 )))
(assert (not (= L57 L5 )))
(assert (= L59 L5 ))
(assert (not (= L61 L56 )))
(assert (= L63 L5 ))
(assert (= L65 L56 ))
(assert (not (= L67 L3 )))
(assert (not (= L69 L5 )))
(assert (= L71 L3 ))
(assert (not (= L73 L24 )))
(assert (not (= L75 L5 )))
(assert (= L77 L56 ))
(assert (not (= L79 L3 )))
(assert (= L81 L3 ))
(assert (not (= L83 L3 )))
(assert (not (= L85 L3 )))
(assert (not (= L87 L24 )))
(assert (not (= L89 L24 )))
(assert (= L91 L56 ))
(assert (not (= L93 L22 )))
(assert (not (= L95 L24 )))
(assert (not (= L97 L3 )))
(assert (not (= L99 L5 )))
(assert (= L101 L18 ))
(assert (not (= L103 L3 )))
(assert (not (= L105 L5 )))
(assert (= L107 L38 ))
(assert (not (= L109 L5 )))
(assert (= L111 L22 ))
(assert (not (= L113 L22 )))
(assert (not (= L115 L24 )))
(assert (not (= L117 L3 )))
(assert (not (= L6 "sql" )))
(assert (= L120 L38 ))
(assert (not (= L122 L3 )))
(assert (not (= L124 L3 )))
(assert (not (= L126 L24 )))
(check-sat)
(get-model)
(exit)
